c User generated cnf file
p cnf 15 59
5 15 -14 0 
15 -7 11 0 
5 8 -8 0 
6 -15 9 0 
-10 2 5 0 
-6 9 6 0 
-9 1 2 0 
5 -10 5 0 
-8 4 11 0 
-1 5 6 0 
14 8 -7 0 
-2 10 13 0 
-10 11 3 0 
-10 15 4 0 
10 15 -9 0 
14 -11 2 0 
6 10 -12 0 
14 4 -1 0 
-1 8 7 0 
-15 7 13 0 
3 6 -12 0 
-3 6 8 0 
-10 8 4 0 
5 -5 13 0 
7 1 -10 0 
-15 5 9 0 
-4 13 13 0 
7 5 -8 0 
13 8 -14 0 
1 7 -14 0 
9 8 -3 0 
7 -8 4 0 
8 -14 14 0 
14 8 -1 0 
11 -5 8 0 
2 -6 15 0 
-2 14 8 0 
-12 10 4 0 
-5 14 4 0 
14 -3 10 0 
15 -13 15 0 
1 -8 7 0 
-12 11 12 0 
1 -9 2 0 
8 11 -14 0 
2 -3 6 0 
15 -4 14 0 
-6 5 4 0 
15 -10 11 0 
-4 3 15 0 
11 7 -7 0 
11 4 -3 0 
10 -9 12 0 
5 5 -8 0 
-9 12 5 0 
14 12 -13 0 
5 -14 12 0 
7 -8 12 0 
-12 9 14 0 
